17	4
18	33	33	22	
0	0	0	0	0	3	2	3	4	
3	8	0	6	8	2	5	13	
1	9	8	0	0	3	6	8	17	
6	0	0	4	0	2	12	17	
6	0	9	5	0	2	9	15	
100	5	10	3	0	3	7	11	14	
250	0	3	10	0	3	10	17	17	
200	0	7	6	0	1	16	
225	0	0	2	9	1	17	
125	0	9	0	2	1	17	
200	5	4	8	2	1	16	
125	5	9	0	1	2	16	17	
2	0	0	4	0	2	17	17	
2	0	1	0	0	2	17	17	
5	4	9	7	0	1	17	
4	4	3	0	0	2	17	17	
0	0	0	0	0	0	
